57425
25, 31, 1, 27, 33, 42, 18, 30, 4, 12, 9, 14, 2, 15, 36, 39, 46, 29, 53, 34, 54, 47, 26, 55, 6, 28, 3, 43, 40, 7, 5, 35, 24, 50, 20, 37, 51, 13, 41, 32, 38, 8, 44, 19, 49, 48, 17, 21, 23, 10, 22, 16, 52, 11, 45
